c 3 - XORSAT
p cnf 20 80
-13 -16 -18 0
-13 16 18 0
13 -16 18 0
13 16 -18 0
-1 -6 -13 0
-1 6 13 0
1 -6 13 0
1 6 -13 0
8 9 14 0
-8 -9 14 0
-8 9 -14 0
8 -9 -14 0
3 5 12 0
-3 -5 12 0
-3 5 -12 0
3 -5 -12 0
-1 -13 -11 0
-1 13 11 0
1 -13 11 0
1 13 -11 0
3 4 20 0
-3 -4 20 0
-3 4 -20 0
3 -4 -20 0
4 7 16 0
-4 -7 16 0
-4 7 -16 0
4 -7 -16 0
1 6 10 0
-1 -6 10 0
-1 6 -10 0
1 -6 -10 0
15 19 20 0
-15 -19 20 0
-15 19 -20 0
15 -19 -20 0
-2 -15 -17 0
-2 15 17 0
2 -15 17 0
2 15 -17 0
3 5 15 0
-3 -5 15 0
-3 5 -15 0
3 -5 -15 0
9 10 18 0
-9 -10 18 0
-9 10 -18 0
9 -10 -18 0
8 14 17 0
-8 -14 17 0
-8 14 -17 0
8 -14 -17 0
4 5 7 0
-4 -5 7 0
-4 5 -7 0
4 -5 -7 0
7 19 17 0
-7 -19 17 0
-7 19 -17 0
7 -19 -17 0
-8 -18 -12 0
-8 18 12 0
8 -18 12 0
8 18 -12 0
-2 -6 -12 0
-2 6 12 0
2 -6 12 0
2 6 -12 0
-2 -10 -11 0
-2 10 11 0
2 -10 11 0
2 10 -11 0
-11 -14 -16 0
-11 14 16 0
11 -14 16 0
11 14 -16 0
19 20 9 0
-19 -20 9 0
-19 20 -9 0
19 -20 -9 0
